# Objective value = 1.9581701924996682e+03
x[0] 1
x[1] 0
x[2] 1
x[3] 0
x[4] 1
x[5] 1
x[6] 1
x[7] 1
x[8] 1
x[9] 0
x[10] 1
x[11] 0
x[12] 1
x[13] 0
x[14] 0
x[15] 0
x[16] 1
x[17] 0
x[18] 0
x[19] 1
x[20] 0
x[21] 1
x[22] 0
x[23] 1
x[24] 1
x[25] 1
x[26] 1
x[27] 1
x[28] 0
x[29] 1
x[30] 0
x[31] 1
x[32] 1
x[33] 1
x[34] 1
x[35] 0
x[36] 1
x[37] 1
x[38] 0
x[39] 0
x[40] 1
x[41] 1
x[42] 0
x[43] 1
x[44] 0
x[45] 0
x[46] 0
x[47] 1
x[48] 0
x[49] 0
x[50] 0
x[51] 1
x[52] 1
x[53] 1
x[54] 0
x[55] 0
x[56] 1
x[57] 1
x[58] 0
x[59] 1
x[60] 0
x[61] 0
x[62] 1
x[63] 1
x[64] 0
x[65] 1
x[66] 0
x[67] 0
x[68] 1
x[69] 1
x[70] 0
x[71] 0
x[72] 0
x[73] 1
x[74] 0
x[75] 1
x[76] 1
x[77] 1
x[78] 0
x[79] 1
x[80] 1
x[81] 0
x[82] 0
x[83] 1
x[84] 0
x[85] 0
x[86] 1
x[87] 1
x[88] 0
x[89] 1
x[90] 0
x[91] 0
x[92] 0
x[93] 1
x[94] 1
x[95] 0
x[96] 1
x[97] 1
x[98] 1
x[99] 1
x[100] 1
x[101] 1
x[102] 1
x[103] 1
x[104] 1
x[105] 1
x[106] 1
x[107] 1
x[108] 1
x[109] 0
x[110] 0
x[111] 0
x[112] 1
x[113] 0
x[114] 1
x[115] 1
x[116] 0
x[117] 0
x[118] 0
x[119] 1
x[120] 1
x[121] 1
x[122] 1
x[123] 0
x[124] 1
x[125] 0
x[126] 1
x[127] 1
x[128] 1
x[129] 1
x[130] 1
x[131] 0
x[132] 0
x[133] 0
x[134] 0
x[135] 1
x[136] 1
x[137] 0
x[138] 1
x[139] 1
x[140] 0
x[141] 0
x[142] 1
x[143] 0
x[144] 0
x[145] 0
x[146] 1
x[147] 1
x[148] 0
x[149] 0
x[150] 0
x[151] 1
x[152] 1
x[153] 1
x[154] 0
x[155] 1
x[156] 1
x[157] 1
x[158] 1
x[159] 0
x[160] 0
x[161] 0
x[162] 1
x[163] 1
x[164] 1
x[165] 1
x[166] 1
x[167] 1
x[168] 0
x[169] 0
x[170] 0
x[171] 1
x[172] 1
x[173] 0
x[174] 1
x[175] 0
x[176] 0
x[177] 0
x[178] 1
x[179] 0
x[180] 1
x[181] 1
x[182] 1
x[183] 0
x[184] 0
x[185] 1
x[186] 1
x[187] 1
x[188] 1
x[189] 1
x[190] 0
x[191] 0
x[192] 0
x[193] 1
x[194] 1
x[195] 1
x[196] 1
x[197] 0
x[198] 1
x[199] 1
x[200] 1
x[201] 0
x[202] 0
x[203] 1
x[204] 0
x[205] 0
x[206] 0
x[207] 1
x[208] 0
x[209] 0
x[210] 0
x[211] 1
x[212] 0
x[213] 1
x[214] 1
x[215] 1
x[216] 0
x[217] 0
x[218] 0
x[219] 0
x[220] 1
x[221] 0
x[222] 1
x[223] 0
x[224] 1
x[225] 1
x[226] 1
x[227] 1
x[228] 1
x[229] 1
x[230] 1
x[231] 1
x[232] 1
x[233] 1
x[234] 0
x[235] 1
x[236] 0
x[237] 0
x[238] 0
x[239] 1
x[240] 1
x[241] 0
x[242] 1
x[243] 1
x[244] 1
x[245] 1
x[246] 0
x[247] 0
x[248] 1
x[249] 0
x[250] 1
x[251] 0
x[252] 0
x[253] 1
x[254] 0
x[255] 1
x[256] 1
x[257] 1
x[258] 1
x[259] 0
x[260] 1
x[261] 0
x[262] 0
x[263] 1
x[264] 0
x[265] 0
x[266] 0
x[267] 1
x[268] 1
x[269] 0
x[270] 1
x[271] 1
x[272] 0
x[273] 0
x[274] 0
x[275] 0
x[276] 1
x[277] 1
x[278] 1
x[279] 1
x[280] 1
x[281] 1
x[282] 1
x[283] 1
x[284] 0
x[285] 1
x[286] 1
x[287] 0
x[288] 1
x[289] 1
x[290] 1
x[291] 0
x[292] 0
x[293] 1
x[294] 1
x[295] 1
x[296] 0
x[297] 1
x[298] 1
x[299] 1
x[300] 1
x[301] 1
x[302] 1
x[303] 0
x[304] 1
x[305] 0
x[306] 1
x[307] 1
x[308] 1
x[309] 1
x[310] 1
x[311] 1
x[312] 1
x[313] 1
x[314] 1
x[315] 1
x[316] 1
x[317] 1
x[318] 0
x[319] 0
x[320] 0
x[321] 0
x[322] 1
x[323] 0
x[324] 1
x[325] 1
x[326] 1
x[327] 0
x[328] 0
x[329] 1
x[330] 0
x[331] 0
x[332] 0
x[333] 1
x[334] 1
x[335] 1
x[336] 0
x[337] 1
x[338] 1
x[339] 0
x[340] 1
x[341] 1
x[342] 0
x[343] 1
x[344] 0
x[345] 1
x[346] 1
x[347] 1
x[348] 1
x[349] 0
x[350] 0
x[351] 0
x[352] 1
x[353] 0
x[354] 0
x[355] 0
x[356] 0
x[357] 0
x[358] 0
x[359] 1
x[360] 0
x[361] 1
x[362] 1
x[363] 1
x[364] 1
x[365] 0
x[366] 1
x[367] 1
x[368] 0
x[369] 1
x[370] 1
x[371] 1
x[372] 1
x[373] 0
x[374] 1
x[375] 0
x[376] 1
x[377] 1
x[378] 0
x[379] 1
x[380] 1
x[381] 1
x[382] 1
x[383] 1
x[384] 1
x[385] 1
x[386] 1
x[387] 0
x[388] 0
x[389] 0
x[390] 1
x[391] 1
x[392] 0
x[393] 0
x[394] 0
x[395] 1
x[396] 1
x[397] 1
x[398] 0
x[399] 0
x[400] 1
x[401] 0
x[402] 0
x[403] 0
x[404] 0
x[405] 1
x[406] 1
x[407] 0
x[408] 0
x[409] 0
x[410] 0
x[411] 1
x[412] 0
x[413] 0
x[414] 1
x[415] 0
x[416] 0
x[417] 1
x[418] 1
x[419] 1
x[420] 0
x[421] 1
x[422] 1
x[423] 1
x[424] 0
x[425] 1
x[426] 0
x[427] 0
x[428] 1
x[429] 0
x[430] 0
x[431] 1
x[432] 1
x[433] 1
x[434] 0
x[435] 1
x[436] 0
x[437] 1
x[438] 1
x[439] 0
x[440] 0
x[441] 0
x[442] 1
x[443] 1
x[444] 1
x[445] 0
x[446] 0
x[447] 0
x[448] 0
x[449] 1
x[450] 1
x[451] 0
x[452] 0
x[453] 0
x[454] 1
x[455] 0
x[456] 0
x[457] 1
x[458] 0
x[459] 1
x[460] 1
x[461] 0
x[462] 0
x[463] 0
x[464] 1
x[465] 0
x[466] 1
x[467] 0
x[468] 0
x[469] 1
x[470] 1
x[471] 1
x[472] 0
x[473] 0
x[474] 1
x[475] 1
x[476] 1
x[477] 1
x[478] 1
x[479] 1
x[480] 0
x[481] 0
x[482] 1
x[483] 0
x[484] 1
x[485] 0
x[486] 1
x[487] 1
x[488] 1
x[489] 1
x[490] 0
x[491] 1
x[492] 1
x[493] 1
x[494] 1
x[495] 0
x[496] 0
x[497] 1
x[498] 1
x[499] 1
x[500] 1
x[501] 1
x[502] 0
x[503] 1
x[504] 1
x[505] 0
x[506] 0
x[507] 1
x[508] 1
x[509] 0
x[510] 1
x[511] 1
x[512] 0
x[513] 0
x[514] 0
x[515] 0
x[516] 1
x[517] 1
x[518] 1
x[519] 0
x[520] 1
x[521] 1
x[522] 0
x[523] 0
x[524] 0
x[525] 1
x[526] 1
x[527] 0
x[528] 1
x[529] 0
x[530] 0
x[531] 0
x[532] 1
x[533] 1
x[534] 0
x[535] 1
x[536] 1
x[537] 1
x[538] 1
x[539] 1
x[540] 1
x[541] 1
x[542] 0
x[543] 1
x[544] 0
x[545] 1
x[546] 1
x[547] 0
x[548] 1
x[549] 1
x[550] 1
x[551] 0
x[552] 1
x[553] 1
x[554] 0
x[555] 0
x[556] 1
x[557] 1
x[558] 1
x[559] 0
x[560] 0
x[561] 1
x[562] 0
x[563] 0
x[564] 0
x[565] 0
x[566] 0
x[567] 0
x[568] 0
x[569] 1
x[570] 1
x[571] 0
x[572] 0
x[573] 0
x[574] 0
x[575] 0
x[576] 1
x[577] 1
x[578] 1
x[579] 1
x[580] 0
x[581] 0
x[582] 0
x[583] 0
x[584] 0
x[585] 0
x[586] 1
x[587] 0
x[588] 0
x[589] 1
x[590] 1
x[591] 1
x[592] 1
x[593] 1
x[594] 1
x[595] 1
x[596] 1
x[597] 1
x[598] 1
x[599] 0
x[600] 0
x[601] 1
x[602] 0
x[603] 1
x[604] 0
x[605] 0
x[606] 1
x[607] 1
x[608] 1
x[609] 1
x[610] 0
x[611] 1
x[612] 1
x[613] 1
x[614] 0
x[615] 1
x[616] 0
x[617] 1
x[618] 1
x[619] 0
x[620] 1
x[621] 1
x[622] 1
x[623] 1
x[624] 1
x[625] 1
x[626] 0
x[627] 1
x[628] 1
x[629] 1
x[630] 1
x[631] 1
x[632] 1
x[633] 0
x[634] 1
x[635] 0
x[636] 0
x[637] 0
x[638] 0
x[639] 1
x[640] 0
x[641] 0
x[642] 1
x[643] 1
x[644] 0
x[645] 1
x[646] 1
x[647] 0
x[648] 0
x[649] 1
x[650] 1
x[651] 0
x[652] 1
x[653] 1
x[654] 1
x[655] 1
x[656] 1
x[657] 0
x[658] 1
x[659] 0
x[660] 1
x[661] 1
x[662] 1
x[663] 1
x[664] 0
x[665] 1
x[666] 1
x[667] 0
x[668] 1
x[669] 0
x[670] 1
x[671] 1
x[672] 1
x[673] 0
x[674] 0
x[675] 0
x[676] 1
x[677] 1
x[678] 0
x[679] 0
x[680] 1
x[681] 0
x[682] 0
x[683] 1
x[684] 0
x[685] 1
x[686] 0
x[687] 1
x[688] 0
x[689] 1
x[690] 0
x[691] 0
x[692] 1
x[693] 1
x[694] 1
x[695] 1
x[696] 1
x[697] 1
x[698] 1
x[699] 1
x[700] 0
x[701] 0
x[702] 1
x[703] 1
x[704] 1
x[705] 0
x[706] 0
x[707] 0
x[708] 0
x[709] 1
x[710] 0
x[711] 1
x[712] 1
x[713] 0
x[714] 1
x[715] 1
x[716] 0
x[717] 0
x[718] 1
x[719] 1
x[720] 1
x[721] 1
x[722] 1
x[723] 1
x[724] 0
x[725] 1
x[726] 0
x[727] 0
x[728] 0
x[729] 1
x[730] 1
x[731] 1
x[732] 0
x[733] 1
x[734] 1
x[735] 0
x[736] 0
x[737] 1
x[738] 1
x[739] 1
x[740] 0
x[741] 1
x[742] 0
x[743] 0
x[744] 0
x[745] 0
x[746] 1
x[747] 0
x[748] 0
x[749] 1
x[750] 1
x[751] 1
x[752] 0
x[753] 1
x[754] 0
x[755] 1
x[756] 1
x[757] 1
x[758] 1
x[759] 0
x[760] 1
x[761] 1
x[762] 1
x[763] 1
x[764] 0
x[765] 0
x[766] 0
x[767] 0
x[768] 1
x[769] 0
x[770] 1
x[771] 0
x[772] 0
x[773] 1
x[774] 0
x[775] 1
x[776] 0
x[777] 1
x[778] 1
x[779] 0
x[780] 0
x[781] 1
x[782] 0
x[783] 0
x[784] 0
x[785] 1
x[786] 0
x[787] 0
x[788] 0
x[789] 0
x[790] 1
x[791] 0
x[792] 1
x[793] 0
x[794] 1
x[795] 0
x[796] 0
x[797] 0
x[798] 1
x[799] 1
x[800] 1
x[801] 1
x[802] 0
x[803] 0
x[804] 1
x[805] 1
x[806] 1
x[807] 0
x[808] 1
x[809] 0
x[810] 1
x[811] 1
x[812] 0
x[813] 0
x[814] 0
x[815] 0
x[816] 0
x[817] 1
x[818] 1
x[819] 1
x[820] 1
x[821] 1
x[822] 0
x[823] 1
x[824] 0
x[825] 0
x[826] 0
x[827] 0
x[828] 0
x[829] 0
x[830] 0
x[831] 0
x[832] 0
x[833] 1
x[834] 0
x[835] 1
x[836] 0
x[837] 0
x[838] 0
x[839] 1
x[840] 1
x[841] 1
x[842] 0
x[843] 0
x[844] 1
x[845] 1
x[846] 1
x[847] 1
x[848] 1
x[849] 1
x[850] 1
x[851] 0
x[852] 0
x[853] 0
x[854] 1
x[855] 1
x[856] 1
x[857] 0
x[858] 1
x[859] 0
x[860] 1
x[861] 1
x[862] 1
x[863] 1
x[864] 1
x[865] 0
x[866] 0
x[867] 1
x[868] 0
x[869] 0
x[870] 1
x[871] 1
x[872] 1
x[873] 0
x[874] 1
x[875] 0
x[876] 1
x[877] 1
x[878] 1
x[879] 1
x[880] 1
x[881] 0
x[882] 0
x[883] 0
x[884] 1
x[885] 0
x[886] 1
x[887] 1
x[888] 1
x[889] 1
x[890] 1
x[891] 0
x[892] 1
x[893] 0
x[894] 0
x[895] 0
x[896] 0
x[897] 0
x[898] 1
x[899] 0
x[900] 1
x[901] 1
x[902] 1
x[903] 0
x[904] 0
x[905] 0
x[906] 0
x[907] 1
x[908] 0
x[909] 1
x[910] 0
x[911] 1
x[912] 1
x[913] 0
x[914] 1
x[915] 0
x[916] 1
x[917] 0
x[918] 0
x[919] 0
x[920] 0
x[921] 0
x[922] 0
x[923] 1
x[924] 1
x[925] 1
x[926] 0
x[927] 1
x[928] 0
x[929] 1
x[930] 1
x[931] 1
x[932] 1
x[933] 0
x[934] 0
x[935] 1
x[936] 1
x[937] 1
x[938] 1
x[939] 1
x[940] 1
x[941] 0
x[942] 1
x[943] 1
x[944] 1
x[945] 1
x[946] 1
x[947] 0
x[948] 1
x[949] 1
x[950] 1
x[951] 1
x[952] 1
x[953] 0
x[954] 0
x[955] 1
x[956] 0
x[957] 0
x[958] 1
x[959] 1
x[960] 1
x[961] 0
x[962] 1
x[963] 1
x[964] 0
x[965] 1
x[966] 0
x[967] 0
x[968] 0
x[969] 0
x[970] 1
x[971] 1
x[972] 0
x[973] 1
x[974] 1
x[975] 0
x[976] 0
x[977] 0
x[978] 1
x[979] 1
x[980] 1
x[981] 1
x[982] 1
x[983] 0
x[984] 0
x[985] 1
x[986] 0
x[987] 1
x[988] 1
x[989] 0
x[990] 0
x[991] 0
x[992] 0
x[993] 1
x[994] 0
x[995] 1
x[996] 1
x[997] 1
x[998] 1
x[999] 1
